benchmark/results/graph__15-1000-0.10-03_19/graph__15-1000-0.10-03_19_QuintonOs_Benders_primal_sub.lp
\ This file has been generated by DOcplex
\ ENCODING=ISO-8859-1
\Problem name: Quinton Bounded Benders_primal_sub

Maximize
 obj: tau
Subject To
 c1: tau <= 0.002380952381
 c2: y_a0_proc_0 + y_a0_proc_1 + y_a0_proc_2 - tau = 0
 c3: y_a0_proc_0 <= 0
 c4: y_a0_proc_1 <= 0
 c5: y_a0_proc_2 <= 1
 c6: tau <= 0.000914913083
 c7: y_a1_proc_0 - tau = 0
 c8: y_a1_proc_0 <= 1
 c9: tau <= 0.001349527665
 c10: y_a2_proc_0 + y_a2_proc_1 - tau = 0
 c11: y_a2_proc_0 <= 0
 c12: y_a2_proc_1 <= 1
 c13: tau <= 0.001307189542
 c14: y_a3_proc_2 - tau = 0
 c15: y_a3_proc_2 <= 1
 c16: tau <= 0.001536098310
 c17: y_a4_proc_0 + y_a4_proc_1 + y_a4_proc_2 - tau = 0
 c18: y_a4_proc_0 <= 0
 c19: y_a4_proc_1 <= 1
 c20: y_a4_proc_2 <= 0
 c21: tau <= 0.001083423619
 c22: y_a5_proc_1 + y_a5_proc_2 - tau = 0
 c23: y_a5_proc_1 <= 0
 c24: y_a5_proc_2 <= 1
 c25: tau <= 0.001176470588
 c26: y_a6_proc_0 + y_a6_proc_1 + y_a6_proc_2 - tau = 0
 c27: y_a6_proc_0 <= 1
 c28: y_a6_proc_1 <= 0
 c29: y_a6_proc_2 <= 0
 c30: tau <= 0.001893939394
 c31: y_a7_proc_0 + y_a7_proc_2 - tau = 0
 c32: y_a7_proc_0 <= 1
 c33: y_a7_proc_2 <= 0
 c34: tau <= 0.001164144354
 c35: y_a8_proc_1 + y_a8_proc_2 - tau = 0
 c36: y_a8_proc_1 <= 1
 c37: y_a8_proc_2 <= 0
 c38: tau <= 0.000868055556
 c39: y_a9_proc_0 + y_a9_proc_1 + y_a9_proc_2 - tau = 0
 c40: y_a9_proc_0 <= 0
 c41: y_a9_proc_1 <= 0
 c42: y_a9_proc_2 <= 1
 c43: tau <= 0.001027749229
 c44: y_a10_proc_0 + y_a10_proc_1 - tau = 0
 c45: y_a10_proc_0 <= 1
 c46: y_a10_proc_1 <= 0
 c47: tau <= 0.002409638554
 c48: y_a11_proc_1 + y_a11_proc_2 - tau = 0
 c49: y_a11_proc_1 <= 1
 c50: y_a11_proc_2 <= 0
 c51: tau <= 0.001345895020
 c52: y_a12_proc_0 + y_a12_proc_1 + y_a12_proc_2 - tau = 0
 c53: y_a12_proc_0 <= 1
 c54: y_a12_proc_1 <= 0
 c55: y_a12_proc_2 <= 0
 c56: tau <= 0.001338688086
 c57: y_a13_proc_0 + y_a13_proc_1 + y_a13_proc_2 - tau = 0
 c58: y_a13_proc_0 <= 1
 c59: y_a13_proc_1 <= 0
 c60: y_a13_proc_2 <= 0
 c61: tau <= 0.000957854406
 c62: y_a14_proc_2 - tau = 0
 c63: y_a14_proc_2 <= 1
 c64: u_a1 - u_a0 - 903 y_a0_proc_0 - 518 y_a0_proc_1 - 420 y_a0_proc_2 >= 0
 c65: u_a1 - u_a2 - 1106 y_a2_proc_0 - 741 y_a2_proc_1 >= 0
 c66: u_a2 - u_a3 - 765 y_a3_proc_2 >= -1
 c67: u_a4 - u_a1 - 1093 y_a1_proc_0 >= 0
 c68: u_a5 - u_a2 - 1106 y_a2_proc_0 - 741 y_a2_proc_1 >= 0
 c69: u_a0 - u_a6 - 850 y_a6_proc_0 - 712 y_a6_proc_1 - 1156 y_a6_proc_2 >= -1
 c70: u_a7 - u_a2 - 1106 y_a2_proc_0 - 741 y_a2_proc_1 >= 0
 c71: u_a8 - u_a7 - 528 y_a7_proc_0 - 1082 y_a7_proc_2 >= 0
 c72: u_a9 - u_a5 - 1061 y_a5_proc_1 - 923 y_a5_proc_2 >= 0
 c73: u_a2 - u_a10 - 973 y_a10_proc_0 - 860 y_a10_proc_1 >= -2
 c74: u_a11 - u_a10 - 973 y_a10_proc_0 - 860 y_a10_proc_1 >= -2
 c75: u_a1 - u_a12 - 743 y_a12_proc_0 - 1103 y_a12_proc_1 - 1294 y_a12_proc_2
       >= 0
 c76: u_a13 - u_a9 - 916 y_a9_proc_0 - 1196 y_a9_proc_1 - 1152 y_a9_proc_2 >= 0
 c77: u_a0 - u_a14 - 1044 y_a14_proc_2 >= -1
 c78: u_a12 - u_a8 - 859 y_a8_proc_1 - 952 y_a8_proc_2 >= 0
 c79: u_a11 - u_a4 - 853 y_a4_proc_0 - 651 y_a4_proc_1 - 963 y_a4_proc_2 >= -1
 c80: u_a2 - u_a11 - 415 y_a11_proc_1 - 1090 y_a11_proc_2 >= 0
 c81: u_a6 - u_a3 - 765 y_a3_proc_2 >= -1
 c82: u_a14 - u_a7 - 528 y_a7_proc_0 - 1082 y_a7_proc_2 >= 0
 c83: u_a12 - u_a11 - 415 y_a11_proc_1 - 1090 y_a11_proc_2 >= 0
 c84: u_a3 - u_a9 - 916 y_a9_proc_0 - 1196 y_a9_proc_1 - 1152 y_a9_proc_2 >= 0
 c85: u_a6 - u_a0 - 903 y_a0_proc_0 - 518 y_a0_proc_1 - 420 y_a0_proc_2 >= 0
 c86: u_a10 - u_a5 - 1061 y_a5_proc_1 - 923 y_a5_proc_2 >= 0
 c87: u_a12 - u_a9 - 916 y_a9_proc_0 - 1196 y_a9_proc_1 - 1152 y_a9_proc_2 >= 
      -1
 c88: u_a11 - u_a0 - 903 y_a0_proc_0 - 518 y_a0_proc_1 - 420 y_a0_proc_2 >= 0
 c89: u_a5 - u_a10 - 973 y_a10_proc_0 - 860 y_a10_proc_1 >= -1
 c90: u_a6 - u_a1 - 1093 y_a1_proc_0 >= 0
 c91: u_a1 - u_a0 - 903 y_a0_proc_0 >= -1277
 c92: u_a0 - u_a1 - 1093 y_a1_proc_0 >= -1312
 c93: u_a2 - u_a0 - 903 y_a0_proc_0 >= -2606
 c94: u_a2 - u_a0 - 518 y_a0_proc_1 >= -1312
 c95: u_a0 - u_a2 - 1106 y_a2_proc_0 >= -2571
 c96: u_a0 - u_a2 - 741 y_a2_proc_1 >= -1277
 c97: u_a3 - u_a0 - 420 y_a0_proc_2 >= 0
 c98: u_a0 - u_a3 - 765 y_a3_proc_2 >= -1
 c99: u_a4 - u_a0 - 420 y_a0_proc_2 >= -1312
 c100: u_a4 - u_a0 - 903 y_a0_proc_0 >= -2606
 c101: u_a4 - u_a0 - 518 y_a0_proc_1 >= -1312
 c102: u_a0 - u_a4 - 963 y_a4_proc_2 >= -1277
 c103: u_a0 - u_a4 - 853 y_a4_proc_0 >= -2571
 c104: u_a0 - u_a4 - 651 y_a4_proc_1 >= -1277
 c105: u_a5 - u_a0 - 420 y_a0_proc_2 >= 0
 c106: u_a5 - u_a0 - 518 y_a0_proc_1 >= -2588
 c107: u_a0 - u_a5 - 923 y_a5_proc_2 >= -1
 c108: u_a0 - u_a5 - 1061 y_a5_proc_1 >= -2589
 c109: u_a6 - u_a0 - 420 y_a0_proc_2 >= -1312
 c110: u_a6 - u_a0 - 903 y_a0_proc_0 >= -1312
 c111: u_a6 - u_a0 - 518 y_a0_proc_1 >= -2606
 c112: u_a0 - u_a6 - 1156 y_a6_proc_2 >= -1277
 c113: u_a0 - u_a6 - 850 y_a6_proc_0 >= -1277
 c114: u_a0 - u_a6 - 712 y_a6_proc_1 >= -2571
 c115: u_a7 - u_a0 - 420 y_a0_proc_2 >= -1312
 c116: u_a7 - u_a0 - 903 y_a0_proc_0 >= -1312
 c117: u_a0 - u_a7 - 1082 y_a7_proc_2 >= -1277
 c118: u_a0 - u_a7 - 528 y_a7_proc_0 >= -1277
 c119: u_a8 - u_a0 - 420 y_a0_proc_2 >= -1312
 c120: u_a8 - u_a0 - 518 y_a0_proc_1 >= -1312
 c121: u_a0 - u_a8 - 952 y_a8_proc_2 >= -1277
 c122: u_a0 - u_a8 - 859 y_a8_proc_1 >= -1277
 c123: u_a9 - u_a0 - 420 y_a0_proc_2 >= 0
 c124: u_a9 - u_a0 - 903 y_a0_proc_0 >= -2588
 c125: u_a9 - u_a0 - 518 y_a0_proc_1 >= -2588
 c126: u_a0 - u_a9 - 1152 y_a9_proc_2 >= -1
 c127: u_a0 - u_a9 - 916 y_a9_proc_0 >= -2589
 c128: u_a0 - u_a9 - 1196 y_a9_proc_1 >= -2589
 c129: u_a10 - u_a0 - 903 y_a0_proc_0 >= -1312
 c130: u_a10 - u_a0 - 518 y_a0_proc_1 >= -2606
 c131: u_a0 - u_a10 - 973 y_a10_proc_0 >= -1277
 c132: u_a0 - u_a10 - 860 y_a10_proc_1 >= -2571
 c133: u_a11 - u_a0 - 420 y_a0_proc_2 >= -1312
 c134: u_a11 - u_a0 - 518 y_a0_proc_1 >= -1312
 c135: u_a0 - u_a11 - 1090 y_a11_proc_2 >= -1277
 c136: u_a0 - u_a11 - 415 y_a11_proc_1 >= -1277
 c137: u_a12 - u_a0 - 420 y_a0_proc_2 >= -1312
 c138: u_a12 - u_a0 - 903 y_a0_proc_0 >= -1312
 c139: u_a12 - u_a0 - 518 y_a0_proc_1 >= -2606
 c140: u_a0 - u_a12 - 1294 y_a12_proc_2 >= -1277
 c141: u_a0 - u_a12 - 743 y_a12_proc_0 >= -1277
 c142: u_a0 - u_a12 - 1103 y_a12_proc_1 >= -2571
 c143: u_a13 - u_a0 - 420 y_a0_proc_2 >= -1312
 c144: u_a13 - u_a0 - 903 y_a0_proc_0 >= -1312
 c145: u_a13 - u_a0 - 518 y_a0_proc_1 >= -2606
 c146: u_a0 - u_a13 - 1237 y_a13_proc_2 >= -1277
 c147: u_a0 - u_a13 - 747 y_a13_proc_0 >= -1277
 c148: u_a0 - u_a13 - 963 y_a13_proc_1 >= -2571
 c149: u_a14 - u_a0 - 420 y_a0_proc_2 >= 0
 c150: u_a0 - u_a14 - 1044 y_a14_proc_2 >= -1
 c151: u_a2 - u_a1 - 1093 y_a1_proc_0 >= -1312
 c152: u_a1 - u_a2 - 1106 y_a2_proc_0 >= -1277
 c153: u_a4 - u_a1 - 1093 y_a1_proc_0 >= -1312
 c154: u_a1 - u_a4 - 853 y_a4_proc_0 >= -1277
 c155: u_a6 - u_a1 - 1093 y_a1_proc_0 >= 0
 c156: u_a1 - u_a6 - 850 y_a6_proc_0 >= -1
 c157: u_a7 - u_a1 - 1093 y_a1_proc_0 >= -1
 c158: u_a1 - u_a7 - 528 y_a7_proc_0 >= 0
 c159: u_a9 - u_a1 - 1093 y_a1_proc_0 >= -1312
 c160: u_a1 - u_a9 - 916 y_a9_proc_0 >= -1277
 c161: u_a10 - u_a1 - 1093 y_a1_proc_0 >= 0
 c162: u_a1 - u_a10 - 973 y_a10_proc_0 >= -1
 c163: u_a12 - u_a1 - 1093 y_a1_proc_0 >= -1
 c164: u_a1 - u_a12 - 743 y_a12_proc_0 >= 0
 c165: u_a13 - u_a1 - 1093 y_a1_proc_0 >= 17
 c166: u_a1 - u_a13 - 747 y_a13_proc_0 >= -18
 c167: u_a4 - u_a2 - 1106 y_a2_proc_0 >= -2588
 c168: u_a4 - u_a2 - 741 y_a2_proc_1 >= 0
 c169: u_a2 - u_a4 - 853 y_a4_proc_0 >= -2589
 c170: u_a2 - u_a4 - 651 y_a4_proc_1 >= -1
 c171: u_a5 - u_a2 - 741 y_a2_proc_1 >= -1312
 c172: u_a2 - u_a5 - 1061 y_a5_proc_1 >= -1277
 c173: u_a6 - u_a2 - 1106 y_a2_proc_0 >= -1312
 c174: u_a6 - u_a2 - 741 y_a2_proc_1 >= -1312
 c175: u_a2 - u_a6 - 850 y_a6_proc_0 >= -1277
 c176: u_a2 - u_a6 - 712 y_a6_proc_1 >= -1277
 c177: u_a7 - u_a2 - 1106 y_a2_proc_0 >= -1312
 c178: u_a2 - u_a7 - 528 y_a7_proc_0 >= -1277
 c179: u_a8 - u_a2 - 741 y_a2_proc_1 >= 0
 c180: u_a2 - u_a8 - 859 y_a8_proc_1 >= -1
 c181: u_a9 - u_a2 - 1106 y_a2_proc_0 >= -2606
 c182: u_a9 - u_a2 - 741 y_a2_proc_1 >= -1312
 c183: u_a2 - u_a9 - 916 y_a9_proc_0 >= -2571
 c184: u_a2 - u_a9 - 1196 y_a9_proc_1 >= -1277
 c185: u_a10 - u_a2 - 1106 y_a2_proc_0 >= -1312
 c186: u_a10 - u_a2 - 741 y_a2_proc_1 >= -1312
 c187: u_a2 - u_a10 - 973 y_a10_proc_0 >= -1277
 c188: u_a2 - u_a10 - 860 y_a10_proc_1 >= -1277
 c189: u_a11 - u_a2 - 741 y_a2_proc_1 >= -1
 c190: u_a2 - u_a11 - 415 y_a11_proc_1 >= 0
 c191: u_a12 - u_a2 - 1106 y_a2_proc_0 >= -1277
 c192: u_a12 - u_a2 - 741 y_a2_proc_1 >= -1277
 c193: u_a2 - u_a12 - 743 y_a12_proc_0 >= -1312
 c194: u_a2 - u_a12 - 1103 y_a12_proc_1 >= -1312
 c195: u_a13 - u_a2 - 1106 y_a2_proc_0 >= -1277
 c196: u_a13 - u_a2 - 741 y_a2_proc_1 >= -1277
 c197: u_a2 - u_a13 - 747 y_a13_proc_0 >= -1312
 c198: u_a2 - u_a13 - 963 y_a13_proc_1 >= -1312
 c199: u_a4 - u_a3 - 765 y_a3_proc_2 >= -1312
 c200: u_a3 - u_a4 - 963 y_a4_proc_2 >= -1277
 c201: u_a5 - u_a3 - 765 y_a3_proc_2 >= -1
 c202: u_a3 - u_a5 - 923 y_a5_proc_2 >= 0
 c203: u_a6 - u_a3 - 765 y_a3_proc_2 >= -1277
 c204: u_a3 - u_a6 - 1156 y_a6_proc_2 >= -1312
 c205: u_a7 - u_a3 - 765 y_a3_proc_2 >= -1277
 c206: u_a3 - u_a7 - 1082 y_a7_proc_2 >= -1312
 c207: u_a8 - u_a3 - 765 y_a3_proc_2 >= -1312
 c208: u_a3 - u_a8 - 952 y_a8_proc_2 >= -1277
 c209: u_a9 - u_a3 - 765 y_a3_proc_2 >= -1
 c210: u_a3 - u_a9 - 1152 y_a9_proc_2 >= 0
 c211: u_a11 - u_a3 - 765 y_a3_proc_2 >= -1312
 c212: u_a3 - u_a11 - 1090 y_a11_proc_2 >= -1277
 c213: u_a12 - u_a3 - 765 y_a3_proc_2 >= -1277
 c214: u_a3 - u_a12 - 1294 y_a12_proc_2 >= -1312
 c215: u_a13 - u_a3 - 765 y_a3_proc_2 >= -1312
 c216: u_a3 - u_a13 - 1237 y_a13_proc_2 >= -1277
 c217: u_a14 - u_a3 - 765 y_a3_proc_2 >= -1
 c218: u_a3 - u_a14 - 1044 y_a14_proc_2 >= 0
 c219: u_a5 - u_a4 - 963 y_a4_proc_2 >= -1277
 c220: u_a5 - u_a4 - 651 y_a4_proc_1 >= -1277
 c221: u_a4 - u_a5 - 923 y_a5_proc_2 >= -1312
 c222: u_a4 - u_a5 - 1061 y_a5_proc_1 >= -1312
 c223: u_a6 - u_a4 - 963 y_a4_proc_2 >= -2606
 c224: u_a6 - u_a4 - 853 y_a4_proc_0 >= -1312
 c225: u_a6 - u_a4 - 651 y_a4_proc_1 >= -1312
 c226: u_a4 - u_a6 - 1156 y_a6_proc_2 >= -2571
 c227: u_a4 - u_a6 - 850 y_a6_proc_0 >= -1277
 c228: u_a4 - u_a6 - 712 y_a6_proc_1 >= -1277
 c229: u_a7 - u_a4 - 963 y_a4_proc_2 >= -2606
 c230: u_a7 - u_a4 - 853 y_a4_proc_0 >= -1312
 c231: u_a4 - u_a7 - 1082 y_a7_proc_2 >= -2571
 c232: u_a4 - u_a7 - 528 y_a7_proc_0 >= -1277
 c233: u_a8 - u_a4 - 963 y_a4_proc_2 >= -2589
 c234: u_a8 - u_a4 - 651 y_a4_proc_1 >= -1
 c235: u_a4 - u_a8 - 952 y_a8_proc_2 >= -2588
 c236: u_a4 - u_a8 - 859 y_a8_proc_1 >= 0
 c237: u_a9 - u_a4 - 963 y_a4_proc_2 >= -1312
 c238: u_a9 - u_a4 - 853 y_a4_proc_0 >= -2606
 c239: u_a9 - u_a4 - 651 y_a4_proc_1 >= -1312
 c240: u_a4 - u_a9 - 1152 y_a9_proc_2 >= -1277
 c241: u_a4 - u_a9 - 916 y_a9_proc_0 >= -2571
 c242: u_a4 - u_a9 - 1196 y_a9_proc_1 >= -1277
 c243: u_a10 - u_a4 - 853 y_a4_proc_0 >= -1277
 c244: u_a10 - u_a4 - 651 y_a4_proc_1 >= -1277
 c245: u_a4 - u_a10 - 973 y_a10_proc_0 >= -1312
 c246: u_a4 - u_a10 - 860 y_a10_proc_1 >= -1312
 c247: u_a11 - u_a4 - 963 y_a4_proc_2 >= -2589
 c248: u_a11 - u_a4 - 651 y_a4_proc_1 >= -1
 c249: u_a4 - u_a11 - 1090 y_a11_proc_2 >= -2588
 c250: u_a4 - u_a11 - 415 y_a11_proc_1 >= 0
 c251: u_a12 - u_a4 - 963 y_a4_proc_2 >= -2599
 c252: u_a12 - u_a4 - 853 y_a4_proc_0 >= -1305
 c253: u_a12 - u_a4 - 651 y_a4_proc_1 >= -1305
 c254: u_a4 - u_a12 - 1294 y_a12_proc_2 >= -2578
 c255: u_a4 - u_a12 - 743 y_a12_proc_0 >= -1284
 c256: u_a4 - u_a12 - 1103 y_a12_proc_1 >= -1284
 c257: u_a13 - u_a4 - 963 y_a4_proc_2 >= -2606
 c258: u_a13 - u_a4 - 853 y_a4_proc_0 >= -1312
 c259: u_a13 - u_a4 - 651 y_a4_proc_1 >= -1312
 c260: u_a4 - u_a13 - 1237 y_a13_proc_2 >= -2571
 c261: u_a4 - u_a13 - 747 y_a13_proc_0 >= -1277
 c262: u_a4 - u_a13 - 963 y_a13_proc_1 >= -1277
 c263: u_a14 - u_a4 - 963 y_a4_proc_2 >= -1277
 c264: u_a4 - u_a14 - 1044 y_a14_proc_2 >= -1312
 c265: u_a6 - u_a5 - 923 y_a5_proc_2 >= -1312
 c266: u_a6 - u_a5 - 1061 y_a5_proc_1 >= -2606
 c267: u_a5 - u_a6 - 1156 y_a6_proc_2 >= -1277
 c268: u_a5 - u_a6 - 712 y_a6_proc_1 >= -2571
 c269: u_a7 - u_a5 - 923 y_a5_proc_2 >= -1277
 c270: u_a5 - u_a7 - 1082 y_a7_proc_2 >= -1312
 c271: u_a8 - u_a5 - 923 y_a5_proc_2 >= -1312
 c272: u_a8 - u_a5 - 1061 y_a5_proc_1 >= -1312
 c273: u_a5 - u_a8 - 952 y_a8_proc_2 >= -1277
 c274: u_a5 - u_a8 - 859 y_a8_proc_1 >= -1277
 c275: u_a9 - u_a5 - 923 y_a5_proc_2 >= 0
 c276: u_a9 - u_a5 - 1061 y_a5_proc_1 >= -2588
 c277: u_a5 - u_a9 - 1152 y_a9_proc_2 >= -1
 c278: u_a5 - u_a9 - 1196 y_a9_proc_1 >= -2589
 c279: u_a10 - u_a5 - 1061 y_a5_proc_1 >= -2606
 c280: u_a5 - u_a10 - 860 y_a10_proc_1 >= -2571
 c281: u_a11 - u_a5 - 923 y_a5_proc_2 >= -1312
 c282: u_a11 - u_a5 - 1061 y_a5_proc_1 >= -1312
 c283: u_a5 - u_a11 - 1090 y_a11_proc_2 >= -1277
 c284: u_a5 - u_a11 - 415 y_a11_proc_1 >= -1277
 c285: u_a12 - u_a5 - 923 y_a5_proc_2 >= -1277
 c286: u_a12 - u_a5 - 1061 y_a5_proc_1 >= -2571
 c287: u_a5 - u_a12 - 1294 y_a12_proc_2 >= -1312
 c288: u_a5 - u_a12 - 1103 y_a12_proc_1 >= -2606
 c289: u_a13 - u_a5 - 923 y_a5_proc_2 >= -1312
 c290: u_a13 - u_a5 - 1061 y_a5_proc_1 >= -2606
 c291: u_a5 - u_a13 - 1237 y_a13_proc_2 >= -1277
 c292: u_a5 - u_a13 - 963 y_a13_proc_1 >= -2571
 c293: u_a14 - u_a5 - 923 y_a5_proc_2 >= 0
 c294: u_a5 - u_a14 - 1044 y_a14_proc_2 >= -1
 c295: u_a7 - u_a6 - 1156 y_a6_proc_2 >= -2589
 c296: u_a7 - u_a6 - 850 y_a6_proc_0 >= -1
 c297: u_a6 - u_a7 - 1082 y_a7_proc_2 >= -2588
 c298: u_a6 - u_a7 - 528 y_a7_proc_0 >= 0
 c299: u_a8 - u_a6 - 1156 y_a6_proc_2 >= -2606
 c300: u_a8 - u_a6 - 712 y_a6_proc_1 >= -1312
 c301: u_a6 - u_a8 - 952 y_a8_proc_2 >= -2571
 c302: u_a6 - u_a8 - 859 y_a8_proc_1 >= -1277
 c303: u_a9 - u_a6 - 1156 y_a6_proc_2 >= -1277
 c304: u_a9 - u_a6 - 850 y_a6_proc_0 >= -1277
 c305: u_a9 - u_a6 - 712 y_a6_proc_1 >= -2571
 c306: u_a6 - u_a9 - 1152 y_a9_proc_2 >= -1312
 c307: u_a6 - u_a9 - 916 y_a9_proc_0 >= -1312
 c308: u_a6 - u_a9 - 1196 y_a9_proc_1 >= -2606
 c309: u_a10 - u_a6 - 850 y_a6_proc_0 >= 0
 c310: u_a10 - u_a6 - 712 y_a6_proc_1 >= -2588
 c311: u_a6 - u_a10 - 973 y_a10_proc_0 >= -1
 c312: u_a6 - u_a10 - 860 y_a10_proc_1 >= -2589
 c313: u_a11 - u_a6 - 1156 y_a6_proc_2 >= -2606
 c314: u_a11 - u_a6 - 712 y_a6_proc_1 >= -1312
 c315: u_a6 - u_a11 - 1090 y_a11_proc_2 >= -2571
 c316: u_a6 - u_a11 - 415 y_a11_proc_1 >= -1277
 c317: u_a12 - u_a6 - 1156 y_a6_proc_2 >= -2589
 c318: u_a12 - u_a6 - 850 y_a6_proc_0 >= -1
 c319: u_a12 - u_a6 - 712 y_a6_proc_1 >= -2589
 c320: u_a6 - u_a12 - 1294 y_a12_proc_2 >= -2588
 c321: u_a6 - u_a12 - 743 y_a12_proc_0 >= 0
 c322: u_a6 - u_a12 - 1103 y_a12_proc_1 >= -2588
 c323: u_a13 - u_a6 - 1156 y_a6_proc_2 >= -2571
 c324: u_a13 - u_a6 - 850 y_a6_proc_0 >= 17
 c325: u_a13 - u_a6 - 712 y_a6_proc_1 >= -2571
 c326: u_a6 - u_a13 - 1237 y_a13_proc_2 >= -2606
 c327: u_a6 - u_a13 - 747 y_a13_proc_0 >= -18
 c328: u_a6 - u_a13 - 963 y_a13_proc_1 >= -2606
 c329: u_a14 - u_a6 - 1156 y_a6_proc_2 >= -1277
 c330: u_a6 - u_a14 - 1044 y_a14_proc_2 >= -1312
 c331: u_a8 - u_a7 - 1082 y_a7_proc_2 >= -2606
 c332: u_a7 - u_a8 - 952 y_a8_proc_2 >= -2571
 c333: u_a9 - u_a7 - 1082 y_a7_proc_2 >= -1277
 c334: u_a9 - u_a7 - 528 y_a7_proc_0 >= -1277
 c335: u_a7 - u_a9 - 1152 y_a9_proc_2 >= -1312
 c336: u_a7 - u_a9 - 916 y_a9_proc_0 >= -1312
 c337: u_a10 - u_a7 - 528 y_a7_proc_0 >= 0
 c338: u_a7 - u_a10 - 973 y_a10_proc_0 >= -1
 c339: u_a11 - u_a7 - 1082 y_a7_proc_2 >= -2606
 c340: u_a7 - u_a11 - 1090 y_a11_proc_2 >= -2571
 c341: u_a12 - u_a7 - 1082 y_a7_proc_2 >= -2588
 c342: u_a12 - u_a7 - 528 y_a7_proc_0 >= 0
 c343: u_a7 - u_a12 - 1294 y_a12_proc_2 >= -2589
 c344: u_a7 - u_a12 - 743 y_a12_proc_0 >= -1
 c345: u_a13 - u_a7 - 1082 y_a7_proc_2 >= -2571
 c346: u_a13 - u_a7 - 528 y_a7_proc_0 >= 17
 c347: u_a7 - u_a13 - 1237 y_a13_proc_2 >= -2606
 c348: u_a7 - u_a13 - 747 y_a13_proc_0 >= -18
 c349: u_a14 - u_a7 - 1082 y_a7_proc_2 >= -1312
 c350: u_a7 - u_a14 - 1044 y_a14_proc_2 >= -1277
 c351: u_a9 - u_a8 - 952 y_a8_proc_2 >= -1312
 c352: u_a9 - u_a8 - 859 y_a8_proc_1 >= -1312
 c353: u_a8 - u_a9 - 1152 y_a9_proc_2 >= -1277
 c354: u_a8 - u_a9 - 1196 y_a9_proc_1 >= -1277
 c355: u_a10 - u_a8 - 859 y_a8_proc_1 >= -1277
 c356: u_a8 - u_a10 - 860 y_a10_proc_1 >= -1312
 c357: u_a11 - u_a8 - 952 y_a8_proc_2 >= -2589
 c358: u_a11 - u_a8 - 859 y_a8_proc_1 >= -1
 c359: u_a8 - u_a11 - 1090 y_a11_proc_2 >= -2588
 c360: u_a8 - u_a11 - 415 y_a11_proc_1 >= 0
 c361: u_a12 - u_a8 - 952 y_a8_proc_2 >= -2606
 c362: u_a12 - u_a8 - 859 y_a8_proc_1 >= -1312
 c363: u_a8 - u_a12 - 1294 y_a12_proc_2 >= -2571
 c364: u_a8 - u_a12 - 1103 y_a12_proc_1 >= -1277
 c365: u_a13 - u_a8 - 952 y_a8_proc_2 >= -2571
 c366: u_a13 - u_a8 - 859 y_a8_proc_1 >= -1277
 c367: u_a8 - u_a13 - 1237 y_a13_proc_2 >= -2606
 c368: u_a8 - u_a13 - 963 y_a13_proc_1 >= -1312
 c369: u_a14 - u_a8 - 952 y_a8_proc_2 >= -1277
 c370: u_a8 - u_a14 - 1044 y_a14_proc_2 >= -1312
 c371: u_a10 - u_a9 - 916 y_a9_proc_0 >= -1312
 c372: u_a10 - u_a9 - 1196 y_a9_proc_1 >= -2606
 c373: u_a9 - u_a10 - 973 y_a10_proc_0 >= -1277
 c374: u_a9 - u_a10 - 860 y_a10_proc_1 >= -2571
 c375: u_a11 - u_a9 - 1152 y_a9_proc_2 >= -1312
 c376: u_a11 - u_a9 - 1196 y_a9_proc_1 >= -1312
 c377: u_a9 - u_a11 - 1090 y_a11_proc_2 >= -1277
 c378: u_a9 - u_a11 - 415 y_a11_proc_1 >= -1277
 c379: u_a12 - u_a9 - 1152 y_a9_proc_2 >= -1277
 c380: u_a12 - u_a9 - 916 y_a9_proc_0 >= -1277
 c381: u_a12 - u_a9 - 1196 y_a9_proc_1 >= -2571
 c382: u_a9 - u_a12 - 1294 y_a12_proc_2 >= -1312
 c383: u_a9 - u_a12 - 743 y_a12_proc_0 >= -1312
 c384: u_a9 - u_a12 - 1103 y_a12_proc_1 >= -2606
 c385: u_a13 - u_a9 - 1152 y_a9_proc_2 >= -1277
 c386: u_a13 - u_a9 - 916 y_a9_proc_0 >= -1277
 c387: u_a13 - u_a9 - 1196 y_a9_proc_1 >= -2571
 c388: u_a9 - u_a13 - 1237 y_a13_proc_2 >= -1312
 c389: u_a9 - u_a13 - 747 y_a13_proc_0 >= -1312
 c390: u_a9 - u_a13 - 963 y_a13_proc_1 >= -2606
 c391: u_a14 - u_a9 - 1152 y_a9_proc_2 >= 0
 c392: u_a9 - u_a14 - 1044 y_a14_proc_2 >= -1
 c393: u_a11 - u_a10 - 860 y_a10_proc_1 >= -1312
 c394: u_a10 - u_a11 - 415 y_a11_proc_1 >= -1277
 c395: u_a12 - u_a10 - 973 y_a10_proc_0 >= -1
 c396: u_a12 - u_a10 - 860 y_a10_proc_1 >= -2589
 c397: u_a10 - u_a12 - 743 y_a12_proc_0 >= 0
 c398: u_a10 - u_a12 - 1103 y_a12_proc_1 >= -2588
 c399: u_a13 - u_a10 - 973 y_a10_proc_0 >= 17
 c400: u_a13 - u_a10 - 860 y_a10_proc_1 >= -2571
 c401: u_a10 - u_a13 - 747 y_a13_proc_0 >= -18
 c402: u_a10 - u_a13 - 963 y_a13_proc_1 >= -2606
 c403: u_a12 - u_a11 - 1090 y_a11_proc_2 >= -2606
 c404: u_a12 - u_a11 - 415 y_a11_proc_1 >= -1312
 c405: u_a11 - u_a12 - 1294 y_a12_proc_2 >= -2571
 c406: u_a11 - u_a12 - 1103 y_a12_proc_1 >= -1277
 c407: u_a13 - u_a11 - 1090 y_a11_proc_2 >= -2606
 c408: u_a13 - u_a11 - 415 y_a11_proc_1 >= -1312
 c409: u_a11 - u_a13 - 1237 y_a13_proc_2 >= -2571
 c410: u_a11 - u_a13 - 963 y_a13_proc_1 >= -1277
 c411: u_a14 - u_a11 - 1090 y_a11_proc_2 >= -1312
 c412: u_a11 - u_a14 - 1044 y_a14_proc_2 >= -1277
 c413: u_a13 - u_a12 - 1294 y_a12_proc_2 >= -2571
 c414: u_a13 - u_a12 - 743 y_a12_proc_0 >= 17
 c415: u_a13 - u_a12 - 1103 y_a12_proc_1 >= -2571
 c416: u_a12 - u_a13 - 1237 y_a13_proc_2 >= -2606
 c417: u_a12 - u_a13 - 747 y_a13_proc_0 >= -18
 c418: u_a12 - u_a13 - 963 y_a13_proc_1 >= -2606
 c419: u_a14 - u_a12 - 1294 y_a12_proc_2 >= -1312
 c420: u_a12 - u_a14 - 1044 y_a14_proc_2 >= -1277
 c421: u_a14 - u_a13 - 1237 y_a13_proc_2 >= -1312
 c422: u_a13 - u_a14 - 1044 y_a14_proc_2 >= -1277

Bounds
End
